unsat
(:added-eqs                       3546
 :arith-eq-adapter                118
 :arith-bound-propagations-lp     120
 :arith-conflicts                 406
 :arith-diseq                     950
 :arith-fixed-eqs                 536
 :arith-gcd-calls                 9
 :arith-grobner-calls             145
 :arith-grobner-conflicts         1
 :arith-horner-calls              77
 :arith-horner-cross-nested-forms 210
 :arith-lower                     1401
 :arith-make-feasible             1755
 :arith-max-columns               108
 :arith-max-rows                  47
 :arith-nla-add-bounds            41
 :arith-nla-lemmas                293
 :arith-nla-propagate-bounds      53
 :arith-nla-propagate-eq          1031
 :arith-nra-calls                 179
 :arith-offset-eqs                295
 :arith-patches                   9
 :arith-patches-success           8
 :arith-upper                     2317
 :binary-propagations             5628
 :cnf-encoding-aux-vars           1
 :conflicts                       344
 :decisions                       6033
 :del-clause                      276
 :elim-unconstrained              16
 :final-checks                    376
 :max-memory                      43.48
 :memory                          30.18
 :minimized-lits                  320
 :mk-bool-var                     727
 :mk-clause                       741
 :mk-clause-binary                437
 :nlsat-conflicts                 14580
 :nlsat-decisions                 1796
 :nlsat-propagations              144333
 :nlsat-restarts                  11
 :nlsat-stages                    50173
 :num-allocs                      498187220
 :num-checks                      1
 :propagations                    9534
 :restarts                        3
 :rlimit-count                    2795423
 :sat-backjumps                   501
 :sat-conflicts                   501
 :sat-decisions                   1696
 :sat-del-clause                  15204
 :sat-elim-bool-vars-res          2570
 :sat-elim-clauses                1150
 :sat-elim-literals               1001
 :sat-minimized-lits              1273
 :sat-mk-clause-2ary              9130
 :sat-mk-clause-3ary              3998
 :sat-mk-clause-nary              21481
 :sat-mk-var                      5461
 :sat-probing-assigned            80
 :sat-propagations-2ary           67923
 :sat-propagations-nary           75127
 :sat-restarts                    41
 :sat-scc-elim-binary             52
 :sat-scc-elim-vars               86
 :sat-subs-resolution             246
 :sat-subs-resolution-dyn         61
 :sat-subsumed                    2655
 :sat-units                       366
 :solve-eqs-elim-vars             20
 :solve-eqs-steps                 113
 :time                            2.21
 :total-time                      2.22)
